% From JaCoP's nonogramRepository/data100.nin
 rows = 23;
 row_rule_len = 6;
 row_rules = array2d(1..rows, 1..row_rule_len, 
[
 0,0,0,0,0,6,
 0,0,0,0,2,4,
 0,0,0,2,2,2,
 0,0,0,0,9,3,
 0,0,0,4,2,4,
 0,0,0,1,4,4,
 0,0,0,1,3,6,
 0,0,0,1,3,9,
 0,0,0,4,3,4,
 0,0,0,11,3,3,
 0,0,2,5,2,10,
 0,2,3,5,2,9,
 1,5,5,2,2,9,
 1,5,5,2,2,9,
 0,1,5,5,2,9,
 0,1,5,5,2,9,
 0,1,5,5,2,9,
 0,2,3,5,2,9,
 0,0,2,5,2,9,
 0,0,0,0,14,9,
 0,0,0,0,3,9,
 0,0,0,0,0,12,
 0,0,0,0,0,10
]);

 cols = 29;
 col_rule_len = 5;
 col_rules = array2d(1..cols, 1..col_rule_len, 
[
 0,0,0,0,7,
 0,0,0,2,2,
 0,0,2,5,2,
 0,0,2,7,1,
 0,0,2,7,1,
 0,0,2,7,1,
 0,0,8,5,2,
 0,0,2,3,3,
 0,0,0,2,11,
 0,0,0,3,11,
 0,0,2,1,11,
 2,2,1,7,1,
 0,4,2,5,2,
 0,2,2,2,3,
 0,2,1,7,1,
 0,2,2,5,2,
 0,0,2,1,1,
 0,1,3,2,2,
 1,2,1,2,1,
 0,2,4,2,2,
 0,0,2,5,13,
 0,0,0,8,13,
 0,0,0,7,13,
 0,0,0,2,13,
 0,0,0,2,13,
 0,0,0,2,13,
 0,0,0,0,15,
 0,0,0,0,15,
 0,0,0,0,14
]);

